10
2147483647 85 15 34 62 69 49 22 10 8 
85 2147483647 96 95 44 35 18 52 6 57 
15 96 2147483647 29 1 83 80 37 23 70 
34 95 29 2147483647 1 56 10 88 62 6 
62 44 1 1 2147483647 80 54 24 73 36 
69 35 83 56 80 2147483647 49 28 72 90 
49 18 80 10 54 49 2147483647 28 46 24 
22 52 37 88 24 28 28 2147483647 99 16 
10 6 23 62 73 72 46 99 2147483647 27 
8 57 70 6 36 90 24 16 27 2147483647 
